c description: Perfect Matching Principle on 
c generator: CNFgen (0.9.0)
c copyright: (C) 2012-2020 Massimo Lauria <massimo.lauria@uniroma1.it>
c url: https://massimolauria.net/cnfgen
c
p cnf 80 344
-1 -2 0
1 2 0
-3 -4 0
-3 -5 0
-3 -6 0
-3 -7 0
-4 -5 0
-4 -6 0
-4 -7 0
-5 -6 0
-5 -7 0
-6 -7 0
3 4 5 6 7 0
-8 -9 0
-8 -10 0
-8 -11 0
-8 -12 0
-9 -10 0
-9 -11 0
-9 -12 0
-10 -11 0
-10 -12 0
-11 -12 0
8 9 10 11 12 0
-8 -13 0
8 13 0
0
-1 -3 0
-1 -13 0
-1 -14 0
-1 -15 0
-1 -16 0
-3 -13 0
-3 -14 0
-3 -15 0
-3 -16 0
-13 -14 0
-13 -15 0
-13 -16 0
-14 -15 0
-14 -16 0
-15 -16 0
1 3 13 14 15 16 0
-17 -18 0
-17 -19 0
-17 -20 0
-17 -21 0
-17 -22 0
-18 -19 0
-18 -20 0
-18 -21 0
-18 -22 0
-19 -20 0
-19 -21 0
-19 -22 0
-20 -21 0
-20 -22 0
-21 -22 0
17 18 19 20 21 22 0
-23 -24 0
23 24 0
-4 -17 0
-4 -25 0
-4 -26 0
-4 -27 0
-4 -28 0
-17 -25 0
-17 -26 0
-17 -27 0
-17 -28 0
-25 -26 0
-25 -27 0
-25 -28 0
-26 -27 0
-26 -28 0
-27 -28 0
4 17 25 26 27 28 0
-29 -30 0
29 30 0
-25 -31 0
25 31 0
-32 -33 0
-32 -34 0
-32 -35 0
-33 -34 0
-33 -35 0
-34 -35 0
32 33 34 35 0
-32 -36 0
32 36 0
-9 -18 0
-9 -26 0
-9 -37 0
-9 -38 0
-9 -39 0
-18 -26 0
-18 -37 0
-18 -38 0
-18 -39 0
-26 -37 0
-26 -38 0
-26 -39 0
-37 -38 0
-37 -39 0
-38 -39 0
9 18 26 37 38 39 0
-10 -40 0
10 40 0
-29 -41 0
-29 -42 0
-29 -43 0
-29 -44 0
-29 -45 0
-29 -46 0
-29 -47 0
-41 -42 0
-41 -43 0
-41 -44 0
-41 -45 0
-41 -46 0
-41 -47 0
-42 -43 0
-42 -44 0
-42 -45 0
-42 -46 0
-42 -47 0
-43 -44 0
-43 -45 0
-43 -46 0
-43 -47 0
-44 -45 0
-44 -46 0
-44 -47 0
-45 -46 0
-45 -47 0
-46 -47 0
29 41 42 43 44 45 46 47 0
-14 -37 0
-14 -48 0
-14 -49 0
-37 -48 0
-37 -49 0
-48 -49 0
14 37 48 49 0
-41 -50 0
-41 -51 0
-41 -52 0
-50 -51 0
-50 -52 0
-51 -52 0
41 50 51 52 0
-53 -54 0
-53 -55 0
-53 -56 0
-53 -57 0
-54 -55 0
-54 -56 0
-54 -57 0
-55 -56 0
-55 -57 0
-56 -57 0
53 54 55 56 57 0
-5 -19 0
-5 -36 0
-5 -42 0
-5 -58 0
-5 -59 0
-5 -60 0
-19 -36 0
-19 -42 0
-19 -58 0
-19 -59 0
-19 -60 0
-36 -42 0
-36 -58 0
-36 -59 0
-36 -60 0
-42 -58 0
-42 -59 0
-42 -60 0
-58 -59 0
-58 -60 0
-59 -60 0
5 19 36 42 58 59 60 0
-15 -27 0
-15 -61 0
-15 -62 0
-15 -63 0
-27 -61 0
-27 -62 0
-27 -63 0
-61 -62 0
-61 -63 0
-62 -63 0
15 27 61 62 63 0
-38 -53 0
-38 -64 0
-38 -65 0
-53 -64 0
-53 -65 0
-64 -65 0
38 53 64 65 0
-43 -58 0
-43 -66 0
-43 -67 0
-43 -68 0
-58 -66 0
-58 -67 0
-58 -68 0
-66 -67 0
-66 -68 0
-67 -68 0
43 58 66 67 68 0
-31 -48 0
-31 -69 0
-48 -69 0
31 48 69 0
-20 -69 0
-20 -70 0
-69 -70 0
20 69 70 0
-50 -66 0
-50 -71 0
-50 -72 0
-50 -73 0
-50 -74 0
-66 -71 0
-66 -72 0
-66 -73 0
-66 -74 0
-71 -72 0
-71 -73 0
-71 -74 0
-72 -73 0
-72 -74 0
-73 -74 0
50 66 71 72 73 74 0
64 0
-23 -54 0
-23 -61 0
-23 -71 0
-54 -61 0
-54 -71 0
-61 -71 0
23 54 61 71 0
-6 -72 0
-6 -75 0
-6 -76 0
-72 -75 0
-72 -76 0
-75 -76 0
6 72 75 76 0
-11 -51 0
-11 -77 0
-51 -77 0
11 51 77 0
-33 -40 0
-33 -44 0
-33 -59 0
-33 -70 0
-33 -73 0
-33 -77 0
-40 -44 0
-40 -59 0
-40 -70 0
-40 -73 0
-40 -77 0
-44 -59 0
-44 -70 0
-44 -73 0
-44 -77 0
-59 -70 0
-59 -73 0
-59 -77 0
-70 -73 0
-70 -77 0
-73 -77 0
33 40 44 59 70 73 77 0
-2 -12 0
-2 -75 0
-2 -78 0
-12 -75 0
-12 -78 0
-75 -78 0
2 12 75 78 0
-21 -55 0
-21 -62 0
-21 -67 0
-55 -62 0
-55 -67 0
-62 -67 0
21 55 62 67 0
-16 -39 0
-16 -79 0
-39 -79 0
16 39 79 0
-24 -28 0
-24 -45 0
-24 -65 0
-24 -68 0
-28 -45 0
-28 -65 0
-28 -68 0
-45 -65 0
-45 -68 0
-65 -68 0
24 28 45 65 68 0
-34 -46 0
-34 -78 0
-34 -79 0
-34 -80 0
-46 -78 0
-46 -79 0
-46 -80 0
-78 -79 0
-78 -80 0
-79 -80 0
34 46 78 79 80 0
-63 -74 0
63 74 0
-22 -56 0
-22 -60 0
-56 -60 0
22 56 60 0
-30 -35 0
-30 -47 0
-30 -49 0
-30 -52 0
-30 -76 0
-35 -47 0
-35 -49 0
-35 -52 0
-35 -76 0
-47 -49 0
-47 -52 0
-47 -76 0
-49 -52 0
-49 -76 0
-52 -76 0
30 35 47 49 52 76 0
-7 -57 0
-7 -80 0
-57 -80 0
7 57 80 0